examples/olaf/prog.smt2
(set-logic HORN)
(declare-fun Q_n0 (Int Int Int Int) Bool)
(declare-fun Q_exit (Int Int Int Int) Bool)
(declare-fun Q_n0_0b (Int Int Int Int) Bool)
(declare-fun Q_n0_10b (Int Int Int Int) Bool)
(declare-fun Q_n0_11b (Int Int Int Int) Bool)
(declare-fun Q_n0_12b (Int Int Int Int) Bool)
(declare-fun Q_n0_13b (Int Int Int Int) Bool)
(declare-fun Q_n0_14b (Int Int Int Int) Bool)
(declare-fun Q_n0_15b (Int Int Int Int) Bool)
(declare-fun Q_n0_16b (Int Int Int Int) Bool)
(declare-fun Q_n0_1b (Int Int Int Int) Bool)
(declare-fun Q_n0_2b (Int Int Int Int) Bool)
(declare-fun Q_n0_3b (Int Int Int Int) Bool)
(declare-fun Q_n0_4b (Int Int Int Int) Bool)
(declare-fun Q_n0_5b (Int Int Int Int) Bool)
(declare-fun Q_n0_6b (Int Int Int Int) Bool)
(declare-fun Q_n0_7b (Int Int Int Int) Bool)
(declare-fun Q_n0_8b (Int Int Int Int) Bool)
(declare-fun Q_n0_9b (Int Int Int Int) Bool)
(declare-fun Q_n1 (Int Int Int Int) Bool)
(declare-fun Q_n10 (Int Int Int Int) Bool)
(declare-fun Q_n2 (Int Int Int Int) Bool)
(declare-fun Q_n3 (Int Int Int Int) Bool)
(declare-fun Q_n4 (Int Int Int Int) Bool)
(declare-fun Q_n5 (Int Int Int Int) Bool)
(declare-fun Q_n6 (Int Int Int Int) Bool)
(declare-fun Q_n7 (Int Int Int Int) Bool)
(declare-fun Q_n8 (Int Int Int Int) Bool)
(declare-fun Q_n9 (Int Int Int Int) Bool)
(assert (forall ((no Int) (na Int) (nb Int) (nm Int)) (=> (and (= no na) (= na nb) (= nb nm)) (Q_n0 no na nb nm))))
(assert (forall ((no Int) (na Int) (nb Int) (nm Int)) (=> (Q_exit no na nb nm) (Q_n1 no na nb nm))))
(assert (forall ((no Int) (na Int) (nb Int) (nm Int)) (=> (Q_exit no na nb nm) (Q_n10 no na nb nm))))
(assert (forall ((no Int) (na Int) (nb Int) (nm Int)) (=> (Q_n0 no na nb nm) (Q_n0_0b no na nb nm))))
(assert (forall ((no Int) (na Int) (nb Int) (nm Int)) (=> (Q_n0_0b no na nb nm) (Q_n0_1b no na nb nm))))
(assert (forall ((no Int) (na Int) (nb Int) (nm Int)) (=> (Q_n0_0b no na nb nm) (Q_n0_4b no na nb nm))))
(assert (forall ((no Int) (na Int) (nb Int) (nm Int) (nb1 Int) (nm1 Int)) (=> (and (= nm1 (div nm 2)) (= nb1 (div nb 2)) (Q_n0_10b no na nb nm)) (Q_n0_11b no na nb1 nm1))))
(assert (forall ((no Int) (na Int) (nb Int) (nm Int)) (=> (Q_n0_11b no na nb nm) (Q_n0_15b no na nb nm))))
(assert (forall ((no Int) (na Int) (nb Int) (nm Int)) (=> (and (not (= (mod nm 2) 0)) (not (= (mod nb 2) 0)) (Q_n0_12b no na nb nm)) (Q_n0_13b no na nb nm))))
(assert (forall ((no Int) (na Int) (nb Int) (nm Int) (nb1 Int) (nm1 Int)) (=> (and (= nm1 (+ (* 3 nm) 1)) (= nb1 (+ (* 3 nb) 1)) (Q_n0_13b no na nb nm)) (Q_n0_14b no na nb1 nm1))))
(assert (forall ((no Int) (na Int) (nb Int) (nm Int)) (=> (Q_n0_14b no na nb nm) (Q_n0_15b no na nb nm))))
(assert (forall ((no Int) (na Int) (nb Int) (nm Int)) (=> (Q_n0_15b no na nb nm) (Q_n0_6b no na nb nm))))
(assert (forall ((no Int) (na Int) (nb Int) (nm Int)) (=> (and (= nm 1) (= nb 1) (Q_n0_16b no na nb nm)) (Q_exit no na nb nm))))
(assert (forall ((no Int) (na Int) (nb Int) (nm Int)) (=> (and (< nm 0) (< nb 0) (Q_n0_1b no na nb nm)) (Q_n0_2b no na nb nm))))
(assert (forall ((no Int) (na Int) (nb Int) (nm Int) (nb1 Int) (nm1 Int)) (=> (and (= nm1 (* nm (* 42 1))) (= nb1 (* nb (* 42 1))) (Q_n0_2b no na nb nm)) (Q_n0_3b no na nb1 nm1))))
(assert (forall ((no Int) (na Int) (nb Int) (nm Int)) (=> (Q_n0_3b no na nb nm) (Q_n0_6b no na nb nm))))
(assert (forall ((no Int) (na Int) (nb Int) (nm Int)) (=> (and (>= nm 0) (>= nb 0) (Q_n0_4b no na nb nm)) (Q_n0_5b no na nb nm))))
(assert (forall ((no Int) (na Int) (nb Int) (nm Int)) (=> (Q_n0_5b no na nb nm) (Q_n0_6b no na nb nm))))
(assert (forall ((no Int) (na Int) (nb Int) (nm Int)) (=> (Q_n0_6b no na nb nm) (Q_n0_7b no na nb nm))))
(assert (forall ((no Int) (na Int) (nb Int) (nm Int)) (=> (Q_n0_6b no na nb nm) (Q_n0_16b no na nb nm))))
(assert (forall ((no Int) (na Int) (nb Int) (nm Int)) (=> (and (not (= nm 1)) (not (= nb 1)) (Q_n0_7b no na nb nm)) (Q_n0_8b no na nb nm))))
(assert (forall ((no Int) (na Int) (nb Int) (nm Int)) (=> (Q_n0_8b no na nb nm) (Q_n0_9b no na nb nm))))
(assert (forall ((no Int) (na Int) (nb Int) (nm Int)) (=> (Q_n0_8b no na nb nm) (Q_n0_12b no na nb nm))))
(assert (forall ((no Int) (na Int) (nb Int) (nm Int)) (=> (and (= (mod nm 2) 0) (= (mod nb 2) 0) (Q_n0_9b no na nb nm)) (Q_n0_10b no na nb nm))))
(assert (forall ((no Int) (na Int) (nb Int) (nm Int)) (=> (and (not (= nm 1)) (not (= nb 1)) (not (= na 1)) (not (= no 1)) (Q_n1 no na nb nm)) (Q_n2 no na nb nm))))
(assert (forall ((no Int) (na Int) (nb Int) (nm Int)) (=> (and (= nm 1) (= nb 1) (= na 1) (= no 1) (Q_n10 no na nb nm)) (Q_exit no na nb nm))))
(assert (forall ((no Int) (na Int) (nb Int) (nm Int)) (=> (Q_n2 no na nb nm) (Q_n3 no na nb nm))))
(assert (forall ((no Int) (na Int) (nb Int) (nm Int)) (=> (Q_n2 no na nb nm) (Q_n6 no na nb nm))))
(assert (forall ((no Int) (na Int) (nb Int) (nm Int)) (=> (and (= (mod nm 2) 0) (= (mod nb 2) 0) (= (mod na 2) 0) (= (mod no 2) 0) (Q_n3 no na nb nm)) (Q_n4 no na nb nm))))
(assert (forall ((no Int) (na Int) (nb Int) (nm Int) (no1 Int) (na1 Int) (nb1 Int) (nm1 Int)) (=> (and (= nm1 (div nm 2)) (= nb1 (div nb 2)) (= na1 (div na 2)) (= no1 (div no 2)) (Q_n4 no na nb nm)) (Q_n5 no1 na1 nb1 nm1))))
(assert (forall ((no Int) (na Int) (nb Int) (nm Int)) (=> (Q_n5 no na nb nm) (Q_n9 no na nb nm))))
(assert (forall ((no Int) (na Int) (nb Int) (nm Int)) (=> (and (not (= (mod nm 2) 0)) (not (= (mod nb 2) 0)) (not (= (mod na 2) 0)) (not (= (mod no 2) 0)) (Q_n6 no na nb nm)) (Q_n7 no na nb nm))))
(assert (forall ((no Int) (na Int) (nb Int) (nm Int) (no1 Int) (na1 Int) (nb1 Int) (nm1 Int)) (=> (and (= nm1 (+ (* 3 nm) 1)) (= nb1 (+ (* 3 nb) 1)) (= na1 (+ (* 3 na) 1)) (= no1 (+ (* 3 no) 1)) (Q_n7 no na nb nm)) (Q_n8 no1 na1 nb1 nm1))))
(assert (forall ((no Int) (na Int) (nb Int) (nm Int)) (=> (Q_n8 no na nb nm) (Q_n9 no na nb nm))))
(assert (forall ((no Int) (na Int) (nb Int) (nm Int)) (=> (Q_n9 no na nb nm) (Q_n0 no na nb nm))))
(assert (forall ((no Int) (na Int) (nb Int) (nm Int)) (=> (Q_exit no na nb nm) (and (and (or (= no na) (= nm na)) (or (= no nb) (= nm nb)) (or (not (= no na)) (not (= no nb)) (= nm no)))))))
(check-sat)
